52643
0 32 9911
32 41 4364
41 1 3074
1 13 5160
13 8 2683
8 11 3131
11 17 2114
17 3 4623
3 29 803
29 46 2391
46 53 2224
53 33 4747
33 52 4962
52 25 1299
25 54 556
54 27 2081
27 5 3128
5 2 3992
2 42 2897
42 12 4732
12 50 726
50 39 818
39 6 3990
6 36 7018
36 4 4224
4 34 8841
34 23 9692
23 19 2922
19 49 2882
49 37 4030
37 7 6170
7 43 11043
43 31 7810
31 40 4287
40 18 5532
18 48 6027
48 47 1637
47 16 4955
16 22 6419
22 20 2205
20 28 6731
28 21 6660
21 9 2417
9 15 5765
15 38 1931
38 45 2570
45 35 1842
35 14 761
14 51 3696
51 44 1979
44 10 6247
10 24 2150
24 30 624
30 26 1261
26 0 12752